(set-option :produce-models true); benchmark generated from python API
(set-info :status unknown)
(declare-fun l_0_0_7 () Real)
(declare-fun l_0_0_1 () Real)
(declare-fun _a_0_ () Real)
(declare-fun l_0_0_5 () Real)
(declare-fun l_0_0_3 () Real)
(declare-fun l_0_0_4 () Real)
(declare-fun l_0_0_2 () Real)
(declare-fun l_0_0_9 () Real)
(declare-fun l_0_0_11 () Real)
(declare-fun l_0_0_8 () Real)
(declare-fun l_0_0_10 () Real)
(declare-fun _a_1_ () Real)
(declare-fun _a_2_ () Real)
(declare-fun l_0_0_6 () Real)
(declare-fun l_0_0_12 () Real)
(declare-fun _a_3_ () Real)
(declare-fun l_0_1_7 () Real)
(declare-fun l_0_1_13 () Real)
(declare-fun l_0_1_1 () Real)
(declare-fun l_0_1_18 () Real)
(declare-fun l_0_1_17 () Real)
(declare-fun l_0_1_16 () Real)
(declare-fun l_0_1_12 () Real)
(declare-fun l_0_1_11 () Real)
(declare-fun l_0_1_10 () Real)
(declare-fun l_0_1_6 () Real)
(declare-fun l_0_1_5 () Real)
(declare-fun l_0_1_4 () Real)
(declare-fun l_0_1_8 () Real)
(declare-fun l_0_1_14 () Real)
(declare-fun l_0_1_2 () Real)
(declare-fun l_0_1_9 () Real)
(declare-fun l_0_1_15 () Real)
(declare-fun l_0_1_3 () Real)
(declare-fun l_0_2_7 () Real)
(declare-fun l_0_2_13 () Real)
(declare-fun l_0_2_1 () Real)
(declare-fun l_0_2_9 () Real)
(declare-fun l_0_2_8 () Real)
(declare-fun l_0_2_15 () Real)
(declare-fun l_0_2_14 () Real)
(declare-fun l_0_2_3 () Real)
(declare-fun l_0_2_2 () Real)
(declare-fun l_0_2_17 () Real)
(declare-fun l_0_2_16 () Real)
(declare-fun l_0_2_11 () Real)
(declare-fun l_0_2_10 () Real)
(declare-fun l_0_2_5 () Real)
(declare-fun l_0_2_4 () Real)
(declare-fun l_0_2_18 () Real)
(declare-fun l_0_2_12 () Real)
(declare-fun l_0_2_6 () Real)
(assert
 (let ((?x61 (* l_0_0_7 l_0_0_7)))
 (= (- (- _a_0_ (* (* (/ 1.0 8.0) l_0_0_1) l_0_0_1)) ?x61) 0.0)))
(assert
 (let ((?x96 (* 2.0 l_0_0_1)))
 (let ((?x99 (* ?x96 l_0_0_4)))
 (let ((?x103 (- (- (- _a_1_ (* ?x96 l_0_0_2)) ?x99) (* (* 2.0 l_0_0_10) l_0_0_8))))
 (let ((?x110 (- (- ?x103 (* (* 2.0 l_0_0_11) l_0_0_9)) (* (* (/ 1.0 4.0) l_0_0_2) l_0_0_4))))
 (= (- ?x110 (* (* (/ 1.0 4.0) l_0_0_3) l_0_0_5)) 0.0))))))
(assert
 (let ((?x164 (* l_0_0_9 l_0_0_9)))
 (let ((?x162 (* l_0_0_8 l_0_0_8)))
 (let ((?x83 (* l_0_0_1 l_0_0_1)))
 (let ((?x158 (- (+ (- _a_2_ (* (* 2.0 l_0_0_1) l_0_0_2)) ?x83) (* (* (/ 1.0 8.0) l_0_0_2) l_0_0_2))))
 (= (- (- (- ?x158 (* (* (/ 1.0 8.0) l_0_0_3) l_0_0_3)) ?x162) ?x164) 0.0))))))
(assert
 (let ((?x195 (* l_0_0_12 l_0_0_12)))
 (let ((?x193 (* l_0_0_11 l_0_0_11)))
 (let ((?x191 (* l_0_0_10 l_0_0_10)))
 (let ((?x83 (* l_0_0_1 l_0_0_1)))
 (let ((?x194 (- (- (+ (- _a_3_ (* (* 2.0 l_0_0_1) l_0_0_4)) ?x83) ?x191) ?x193)))
 (let ((?x202 (- (- (- ?x194 ?x195) (* (* (/ 1.0 8.0) l_0_0_4) l_0_0_4)) (* (* (/ 1.0 8.0) l_0_0_5) l_0_0_5))))
 (= (- ?x202 (* (* (/ 1.0 8.0) l_0_0_6) l_0_0_6)) 0.0))))))))
(assert
 (let ((?x242 (* (* 1.0 l_0_0_1) l_0_0_1)))
 (let ((?x246 (- (- (* (* (- (/ 1.0 4.0)) l_0_0_1) l_0_0_2) ?x242) (* (* 2.0 l_0_0_7) l_0_0_8))))
 (= ?x246 0.0))))
(assert
 (let ((?x242 (* (* 1.0 l_0_0_1) l_0_0_1)))
 (let ((?x264 (- (- (* (* (- (/ 1.0 4.0)) l_0_0_1) l_0_0_4) ?x242) (* (* 2.0 l_0_0_10) l_0_0_7))))
 (= ?x264 0.0))))
(assert
 (let ((?x282 (* (* 1.0 l_0_0_3) l_0_0_3)))
 (let ((?x279 (* (* 1.0 l_0_0_2) l_0_0_2)))
 (let ((?x96 (* 2.0 l_0_0_1)))
 (let ((?x97 (* ?x96 l_0_0_2)))
 (= (- (- ?x97 ?x279) ?x282) 0.0))))))
(assert
 (let ((?x282 (* (* 1.0 l_0_0_3) l_0_0_3)))
 (let ((?x296 (* (* 2.0 l_0_0_3) l_0_0_5)))
 (let ((?x279 (* (* 1.0 l_0_0_2) l_0_0_2)))
 (let ((?x292 (* (* 2.0 l_0_0_2) l_0_0_4)))
 (let ((?x96 (* 2.0 l_0_0_1)))
 (let ((?x99 (* ?x96 l_0_0_4)))
 (= (- (- (- (- ?x99 ?x292) ?x279) ?x296) ?x282) 0.0))))))))
(assert
 (let ((?x176 (* l_0_0_3 l_0_0_3)))
 (let ((?x170 (* l_0_0_2 l_0_0_2)))
 (let ((?x315 (+ ?x170 ?x176)))
 (= ?x315 0.0)))))
(assert
 (let ((?x296 (* (* 2.0 l_0_0_3) l_0_0_5)))
 (let ((?x292 (* (* 2.0 l_0_0_2) l_0_0_4)))
 (= (+ ?x292 ?x296) 0.0))))
(assert
 (let ((?x231 (* l_0_0_6 l_0_0_6)))
 (let ((?x225 (* l_0_0_5 l_0_0_5)))
 (let ((?x219 (* l_0_0_4 l_0_0_4)))
 (let ((?x176 (* l_0_0_3 l_0_0_3)))
 (let ((?x170 (* l_0_0_2 l_0_0_2)))
 (let ((?x315 (+ ?x170 ?x176)))
 (= (+ (+ (+ ?x315 ?x219) ?x225) ?x231) 0.0))))))))
(assert
 (let ((?x336 (* (* 1.0 l_0_0_6) l_0_0_6)))
 (let ((?x333 (* (* 1.0 l_0_0_5) l_0_0_5)))
 (let ((?x330 (* (* 1.0 l_0_0_4) l_0_0_4)))
 (let ((?x296 (* (* 2.0 l_0_0_3) l_0_0_5)))
 (let ((?x292 (* (* 2.0 l_0_0_2) l_0_0_4)))
 (let ((?x96 (* 2.0 l_0_0_1)))
 (let ((?x97 (* ?x96 l_0_0_2)))
 (= (- (- (- (- (- ?x97 ?x292) ?x296) ?x330) ?x333) ?x336) 0.0)))))))))
(assert
 (let ((?x336 (* (* 1.0 l_0_0_6) l_0_0_6)))
 (let ((?x333 (* (* 1.0 l_0_0_5) l_0_0_5)))
 (let ((?x330 (* (* 1.0 l_0_0_4) l_0_0_4)))
 (let ((?x96 (* 2.0 l_0_0_1)))
 (let ((?x99 (* ?x96 l_0_0_4)))
 (= (- (- (- ?x99 ?x330) ?x333) ?x336) 0.0)))))))
(assert
 (let ((?x296 (* (* 2.0 l_0_0_3) l_0_0_5)))
 (let ((?x292 (* (* 2.0 l_0_0_2) l_0_0_4)))
 (= (+ ?x292 ?x296) 0.0))))
(assert
 (let ((?x231 (* l_0_0_6 l_0_0_6)))
 (= (+ (+ (* l_0_0_4 l_0_0_4) (* l_0_0_5 l_0_0_5)) ?x231) 0.0)))
(assert
 (>= l_0_0_1 0.0))
(assert
 (>= l_0_0_3 0.0))
(assert
 (>= l_0_0_6 0.0))
(assert
 (>= l_0_0_7 0.0))
(assert
 (>= l_0_0_9 0.0))
(assert
 (>= l_0_0_12 0.0))
(assert
 (let ((?x381 (+ (- (* (* (- _a_0_) l_0_1_1) l_0_1_1) (* l_0_1_13 l_0_1_13)) (* 1.0 (* l_0_1_7 l_0_1_7)))))
 (= (+ ?x381 4.0) 0.0)))
(assert
 (let ((?x416 (* l_0_1_18 l_0_1_18)))
 (let ((?x414 (* l_0_1_17 l_0_1_17)))
 (let ((?x412 (* l_0_1_16 l_0_1_16)))
 (let ((?x397 (* l_0_1_6 l_0_1_6)))
 (let ((?x398 (+ (+ (* l_0_1_4 l_0_1_4) (* l_0_1_5 l_0_1_5)) ?x397)))
 (let ((?x374 (- _a_0_)))
 (let ((?x405 (+ (- (* ?x374 ?x398) (* (* _a_3_ l_0_1_1) l_0_1_1)) (* 1.0 (* l_0_1_10 l_0_1_10)))))
 (let ((?x411 (+ (+ ?x405 (* 1.0 (* l_0_1_11 l_0_1_11))) (* 1.0 (* l_0_1_12 l_0_1_12)))))
 (= (- (- (- (- ?x411 ?x412) ?x414) ?x416) 1.0) 0.0))))))))))
(assert
 (let ((?x450 (- (* (* (* (- 2.0) _a_0_) l_0_1_1) l_0_1_2) (* (* 2.0 l_0_1_13) l_0_1_14))))
 (= (+ ?x450 (* (* 2.0 l_0_1_7) l_0_1_8)) 0.0)))
(assert
 (let ((?x471 (+ (* (* (* (- 2.0) _a_0_) l_0_1_1) l_0_1_4) (* (* 2.0 l_0_1_10) l_0_1_7))))
 (= (- ?x471 (* (* 2.0 l_0_1_13) l_0_1_16)) 0.0)))
(assert
 (let ((?x501 (* l_0_1_15 l_0_1_15)))
 (let ((?x499 (* l_0_1_14 l_0_1_14)))
 (let ((?x498 (- (* (- _a_0_) (+ (* l_0_1_2 l_0_1_2) (* l_0_1_3 l_0_1_3))) (* (* _a_2_ l_0_1_1) l_0_1_1))))
 (let ((?x508 (+ (+ (- (- ?x498 ?x499) ?x501) (* 1.0 (* l_0_1_8 l_0_1_8))) (* 1.0 (* l_0_1_9 l_0_1_9)))))
 (= ?x508 0.0))))))
(assert
 (let ((?x533 (+ (* (* 2.0 l_0_1_2) l_0_1_4) (* (* 2.0 l_0_1_3) l_0_1_5))))
 (let ((?x374 (- _a_0_)))
 (let ((?x539 (+ (- (* ?x374 ?x533) (* (* _a_1_ l_0_1_1) l_0_1_1)) (* (* 2.0 l_0_1_10) l_0_1_8))))
 (let ((?x545 (- (+ ?x539 (* (* 2.0 l_0_1_11) l_0_1_9)) (* (* 2.0 l_0_1_14) l_0_1_16))))
 (= (- ?x545 (* (* 2.0 l_0_1_15) l_0_1_17)) 0.0))))))
(assert
 (let ((?x590 (- (* (* (* (- 2.0) _a_1_) l_0_1_1) l_0_1_2) (* (* (* 2.0 _a_2_) l_0_1_1) l_0_1_4))))
 (= ?x590 0.0)))
(assert
 (let ((?x607 (- (* (* (* (- 2.0) _a_1_) l_0_1_1) l_0_1_4) (* (* (* 2.0 _a_3_) l_0_1_1) l_0_1_2))))
 (= ?x607 0.0)))
(assert
 (let ((?x533 (+ (* (* 2.0 l_0_1_2) l_0_1_4) (* (* 2.0 l_0_1_3) l_0_1_5))))
 (let ((?x624 (- (* (- _a_1_) (+ (* l_0_1_2 l_0_1_2) (* l_0_1_3 l_0_1_3))) (* _a_2_ ?x533))))
 (= ?x624 0.0))))
(assert
 (let ((?x397 (* l_0_1_6 l_0_1_6)))
 (let ((?x398 (+ (+ (* l_0_1_4 l_0_1_4) (* l_0_1_5 l_0_1_5)) ?x397)))
 (let ((?x533 (+ (* (* 2.0 l_0_1_2) l_0_1_4) (* (* 2.0 l_0_1_3) l_0_1_5))))
 (let ((?x621 (- _a_1_)))
 (let ((?x656 (- (- (* ?x621 ?x533) (* _a_2_ ?x398)) (* _a_3_ (+ (* l_0_1_2 l_0_1_2) (* l_0_1_3 l_0_1_3))))))
 (= ?x656 0.0)))))))
(assert
 (let ((?x533 (+ (* (* 2.0 l_0_1_2) l_0_1_4) (* (* 2.0 l_0_1_3) l_0_1_5))))
 (let ((?x397 (* l_0_1_6 l_0_1_6)))
 (let ((?x398 (+ (+ (* l_0_1_4 l_0_1_4) (* l_0_1_5 l_0_1_5)) ?x397)))
 (let ((?x621 (- _a_1_)))
 (= (- (* ?x621 ?x398) (* _a_3_ ?x533)) 0.0))))))
(assert
 (= (* (* (* (- 2.0) _a_2_) l_0_1_1) l_0_1_2) 0.0))
(assert
 (= (* (- _a_2_) (+ (* l_0_1_2 l_0_1_2) (* l_0_1_3 l_0_1_3))) 0.0))
(assert
 (= (* (* (* (- 2.0) _a_3_) l_0_1_1) l_0_1_4) 0.0))
(assert
 (let ((?x397 (* l_0_1_6 l_0_1_6)))
 (let ((?x398 (+ (+ (* l_0_1_4 l_0_1_4) (* l_0_1_5 l_0_1_5)) ?x397)))
 (let ((?x746 (- _a_3_)))
 (= (* ?x746 ?x398) 0.0)))))
(assert
 (>= l_0_1_1 0.0))
(assert
 (>= l_0_1_3 0.0))
(assert
 (>= l_0_1_6 0.0))
(assert
 (>= l_0_1_7 0.0))
(assert
 (>= l_0_1_9 0.0))
(assert
 (>= l_0_1_12 0.0))
(assert
 (>= l_0_1_13 0.0))
(assert
 (>= l_0_1_15 0.0))
(assert
 (>= l_0_1_18 0.0))
(assert
 (let ((?x771 (* l_0_2_13 l_0_2_13)))
 (let ((?x775 (- (- (+ (* (* (- _a_0_) l_0_2_1) l_0_2_1) _a_0_) ?x771) (* (* 1.0 l_0_2_7) l_0_2_7))))
 (= ?x775 0.0))))
(assert
 (let ((?x806 (* l_0_2_15 l_0_2_15)))
 (let ((?x804 (* l_0_2_14 l_0_2_14)))
 (let ((?x802 (* (/ 1.0 100.0) _a_3_)))
 (let ((?x799 (* (/ 790123456790123.0 1000000000000000.0) _a_2_)))
 (let ((?x793 (* (/ 888888888888889.0 10000000000000000.0) _a_1_)))
 (let ((?x794 (+ (* (- _a_0_) (+ (* l_0_2_2 l_0_2_2) (* l_0_2_3 l_0_2_3))) ?x793)))
 (let ((?x805 (- (+ (+ (- ?x794 (* (* _a_2_ l_0_2_1) l_0_2_1)) ?x799) ?x802) ?x804)))
 (let ((?x813 (- (- (- ?x805 ?x806) (* (* 1.0 l_0_2_8) l_0_2_8)) (* (* 1.0 l_0_2_9) l_0_2_9))))
 (= ?x813 0.0))))))))))
(assert
 (let ((?x857 (* (/ 9.0 50.0) _a_3_)))
 (let ((?x854 (* (/ 493827160493827.0 5000000000000000.0) _a_2_)))
 (let ((?x851 (* (/ 198611111111111.0 250000000000000.0) _a_1_)))
 (let ((?x845 (+ (* (* 2.0 l_0_2_2) l_0_2_4) (* (* 2.0 l_0_2_3) l_0_2_5))))
 (let ((?x374 (- _a_0_)))
 (let ((?x855 (- (+ (- (* ?x374 ?x845) (* (* _a_1_ l_0_2_1) l_0_2_1)) ?x851) ?x854)))
 (let ((?x864 (- (- (+ ?x855 ?x857) (* (* 2.0 l_0_2_10) l_0_2_8)) (* (* 2.0 l_0_2_11) l_0_2_9))))
 (let ((?x870 (- (- ?x864 (* (* 2.0 l_0_2_14) l_0_2_16)) (* (* 2.0 l_0_2_15) l_0_2_17))))
 (= ?x870 0.0))))))))))
(assert
 (let ((?x948 (* l_0_2_18 l_0_2_18)))
 (let ((?x946 (* l_0_2_17 l_0_2_17)))
 (let ((?x944 (* l_0_2_16 l_0_2_16)))
 (let ((?x933 (* (/ 81.0 100.0) _a_3_)))
 (let ((?x927 (* (/ 154320987654321.0 50000000000000000.0) _a_2_)))
 (let ((?x924 (* (/ 1.0 20.0) _a_1_)))
 (let ((?x920 (* l_0_2_6 l_0_2_6)))
 (let ((?x921 (+ (+ (* l_0_2_4 l_0_2_4) (* l_0_2_5 l_0_2_5)) ?x920)))
 (let ((?x374 (- _a_0_)))
 (let ((?x931 (- (+ (- (* ?x374 ?x921) ?x924) ?x927) (* (* _a_3_ l_0_2_1) l_0_2_1))))
 (let ((?x940 (- (- (+ ?x931 ?x933) (* (* 1.0 l_0_2_10) l_0_2_10)) (* (* 1.0 l_0_2_11) l_0_2_11))))
 (let ((?x949 (- (- (- (- ?x940 (* (* 1.0 l_0_2_12) l_0_2_12)) ?x944) ?x946) ?x948)))
 (= ?x949 0.0))))))))))))))
(assert
 (let ((?x1000 (- (* (* (* (- 2.0) _a_0_) l_0_2_1) l_0_2_2) (* (* 2.0 l_0_2_13) l_0_2_14))))
 (= (- ?x1000 (* (* 2.0 l_0_2_7) l_0_2_8)) 0.0)))
(assert
 (let ((?x1024 (- (* (* (* (- 2.0) _a_0_) l_0_2_1) l_0_2_4) (* (* 2.0 l_0_2_10) l_0_2_7))))
 (= (- ?x1024 (* (* 2.0 l_0_2_13) l_0_2_16)) 0.0)))
(assert
 (let ((?x1051 (- (* (* (* (- 2.0) _a_1_) l_0_2_1) l_0_2_2) (* (* (* 2.0 _a_2_) l_0_2_1) l_0_2_4))))
 (= ?x1051 0.0)))
(assert
 (let ((?x1067 (- (* (* (* (- 2.0) _a_1_) l_0_2_1) l_0_2_4) (* (* (* 2.0 _a_3_) l_0_2_1) l_0_2_2))))
 (= ?x1067 0.0)))
(assert
 (let ((?x845 (+ (* (* 2.0 l_0_2_2) l_0_2_4) (* (* 2.0 l_0_2_3) l_0_2_5))))
 (let ((?x1083 (- (* (- _a_1_) (+ (* l_0_2_2 l_0_2_2) (* l_0_2_3 l_0_2_3))) (* _a_2_ ?x845))))
 (= ?x1083 0.0))))
(assert
 (let ((?x920 (* l_0_2_6 l_0_2_6)))
 (let ((?x921 (+ (+ (* l_0_2_4 l_0_2_4) (* l_0_2_5 l_0_2_5)) ?x920)))
 (let ((?x845 (+ (* (* 2.0 l_0_2_2) l_0_2_4) (* (* 2.0 l_0_2_3) l_0_2_5))))
 (let ((?x621 (- _a_1_)))
 (let ((?x1114 (- (- (* ?x621 ?x845) (* _a_2_ ?x921)) (* _a_3_ (+ (* l_0_2_2 l_0_2_2) (* l_0_2_3 l_0_2_3))))))
 (= ?x1114 0.0)))))))
(assert
 (let ((?x845 (+ (* (* 2.0 l_0_2_2) l_0_2_4) (* (* 2.0 l_0_2_3) l_0_2_5))))
 (let ((?x920 (* l_0_2_6 l_0_2_6)))
 (let ((?x921 (+ (+ (* l_0_2_4 l_0_2_4) (* l_0_2_5 l_0_2_5)) ?x920)))
 (let ((?x621 (- _a_1_)))
 (= (- (* ?x621 ?x921) (* _a_3_ ?x845)) 0.0))))))
(assert
 (= (* (* (* (- 2.0) _a_2_) l_0_2_1) l_0_2_2) 0.0))
(assert
 (= (* (- _a_2_) (+ (* l_0_2_2 l_0_2_2) (* l_0_2_3 l_0_2_3))) 0.0))
(assert
 (= (* (* (* (- 2.0) _a_3_) l_0_2_1) l_0_2_4) 0.0))
(assert
 (let ((?x920 (* l_0_2_6 l_0_2_6)))
 (let ((?x921 (+ (+ (* l_0_2_4 l_0_2_4) (* l_0_2_5 l_0_2_5)) ?x920)))
 (let ((?x746 (- _a_3_)))
 (= (* ?x746 ?x921) 0.0)))))
(assert
 (>= l_0_2_1 0.0))
(assert
 (>= l_0_2_3 0.0))
(assert
 (>= l_0_2_6 0.0))
(assert
 (>= l_0_2_7 0.0))
(assert
 (>= l_0_2_9 0.0))
(assert
 (>= l_0_2_12 0.0))
(assert
 (>= l_0_2_13 0.0))
(assert
 (>= l_0_2_15 0.0))
(assert
 (>= l_0_2_18 0.0))
(check-sat)
(get-model)